(set-logic HORN)
(declare-fun rec_partial_init_0@summary ((Array Int Int) Int Int Int (Array Int Int) ) Bool)
(declare-fun rec_partial_init_0@pre ((Array Int Int) Int Int Int ) Bool)
(assert (forall ((.array@0 (Array Int Int))(begin@0 Int)(.array!size@0 Int)(j@0 Int)(array@0 (Array Int Int))(array@1 (Array Int Int))) (=> (and (rec_partial_init_0@pre |array@0| |.array!size@0| |begin@0| |j@0|) (= |.array@0| |array@0|) (>= (- |j@0| 1) |begin@0|) (= |array@1| (store |array@0| (- |j@0| 1) 0))) (rec_partial_init_0@pre |array@1| |.array!size@0| |begin@0| (- |j@0| 1)))))
(assert (forall ((N@0 Int)(begin@0 Int)(end@0 Int)(array@0 (Array Int Int))) (=> (and (> |N@0| 0) (<= |end@0| |N@0|) (<= 0 |begin@0|) (<= |begin@0| |end@0|)) (rec_partial_init_0@pre |array@0| |N@0| |begin@0| |end@0|))))
(assert (forall ((N@0 Int)(begin@0 Int)(end@0 Int)(array@0 (Array Int Int))(array@1 (Array Int Int))) (=> (and (rec_partial_init_0@summary |array@0| |N@0| |begin@0| |end@0| |array@1|) (rec_partial_init_0@pre |array@0| |N@0| |begin@0| |end@0|) (> |N@0| 0) (not (forall ((k@0 Int)) (=> (and (<= |begin@0| |k@0|) (< |k@0| |end@0|)) (= (select |array@1| |k@0|) 0)))) (<= |end@0| |N@0|) (<= 0 |begin@0|) (<= |begin@0| |end@0|)) false)))
(assert (forall ((.array@0 (Array Int Int))(.array!size@0 Int)(begin@0 Int)(j@0 Int)(array@0 (Array Int Int))(array@1 (Array Int Int))(array@2 (Array Int Int))) (=> (and (rec_partial_init_0@summary |array@2| |.array!size@0| |begin@0| (- |j@0| 1) |array@0|) (rec_partial_init_0@pre |array@2| |.array!size@0| |begin@0| (- |j@0| 1)) (rec_partial_init_0@pre |array@1| |.array!size@0| |begin@0| |j@0|) (= |.array@0| |array@1|) (>= (- |j@0| 1) |begin@0|) (= |array@2| (store |array@1| (- |j@0| 1) 0))) (rec_partial_init_0@summary |.array@0| |.array!size@0| |begin@0| |j@0| |array@0|))))
(assert (forall ((.array@0 (Array Int Int))(.array!size@0 Int)(begin@0 Int)(j@0 Int)(array@0 (Array Int Int))) (=> (and (rec_partial_init_0@pre |array@0| |.array!size@0| |begin@0| |j@0|) (= |.array@0| |array@0|) (not (>= (- |j@0| 1) |begin@0|))) (rec_partial_init_0@summary |.array@0| |.array!size@0| |begin@0| |j@0| |array@0|))))
(check-sat)